nNurses = 140;
nHours = 36;
minHours = 8;
maxHours = 13;
maxConsec = 8;
maxPresence = 16;
demand = [13, 17, 13, 8, 9, 13, 18, 18, 22, 25, 21, 24, 24, 29, 28, 26, 22, 18, 23, 21, 16, 20, 20, 18, 20, 22, 27, 23, 28, 29, 24, 23, 27, 31, 34, 38];
